63 39
39 4
18 93
36 28
92 26
55 3
93 41
95 62
57 32
5 97
22 79
56 74
58 18
22 35
29 40
55 40
8 67
25 94
17 87
100 65
94 41
18 28
6 88
89 32
27 73
27 7
31 69
72 61
18 64
32 84
19 89
53 96
30 86
21 66
57 79
49 6
23 84
14 52
7 63
79 10
47 40
37 96
11 99
16 43
27 37
24 47
74 7
63 63
23 52
5 54
30 55
54 42
63 66
29 74
74 16
23 33
55 87
18 22
14 90
33 46
64 70
26 63
71 85
30 92
77 79
52 80
50 86
25 59
63 98
62 71
13 12
35 48
68 31
96 65
9 34
37 35
8 90
10 26
75 71
61 42
34 99
83 33
60 63
43 38
83 4
5 81
40 41
56 41
99 41
22 60
60 27
46 87
18 75
70 38
74 27
16 73
11 11
55 13
72 4
8 62
